20	5
0	4	4	1	2	3
1	3	14	9	6
2	3	14	19	9
3	2	5	8
4	4	14	17	5	19
5	2	10	12
6	3	19	16	18
7	2	20	18
8	2	17	14
9	2	17	5
10	1	11
11	1	15
12	2	16	7
13	2	16	7
14	2	10	12
15	1	13
16	1	21
17	1	21
18	1	21
19	1	21
20	1	21
21	0
0	0	0	0	0	0	0
1	4	3	4	5	5	2
2	10	4	4	4	3	2
3	7	5	4	5	4	4
4	7	1	3	2	2	1
5	6	1	5	4	5	5
6	7	2	5	2	1	2
7	3	1	1	4	5	3
8	10	2	1	3	5	5
9	8	4	5	4	5	3
10	4	1	5	5	1	3
11	9	5	2	4	5	4
12	2	5	3	5	4	5
13	6	4	4	5	5	3
14	2	2	3	5	5	2
15	9	4	4	3	5	4
16	3	2	5	3	4	4
17	5	3	5	2	5	2
18	1	2	4	3	1	3
19	10	5	4	2	5	5
20	7	1	3	5	5	1
21	0	0	0	0	0	0
5	5	5	5	5
